Instance: Data/Instances_txt/inst_200_30_3.txt
SetUpTime: 590.3240540027618

Gurobi 10.0.1 (mac64[x86]) logging started Do  3 Aug 00:52:48 2023

Set parameter LogFile to value "Output/MILP_inst_200_30_3_2023-08-02_21-36-03.txt"
Set parameter TimeLimit to value 2700

Gurobi 10.0.1 (mac64[x86]) logging started Do  3 Aug 00:52:48 2023

Set parameter LogFile to value "Output/MILP_inst_200_30_3_2023-08-02_21-36-03.txt"
Gurobi Optimizer version 10.0.1 build v10.0.1rc0 (mac64[x86])

CPU model: Intel(R) Core(TM) i5-1038NG7 CPU @ 2.00GHz
Thread count: 4 physical cores, 8 logical processors, using up to 8 threads

Optimize a model with 401 rows, 287247 columns and 1886580 nonzeros
Model fingerprint: 0xe89ea84b
Variable types: 0 continuous, 287247 integer (0 binary)
Coefficient statistics:
  Matrix range     [1e+00, 1e+00]
  Objective range  [2e+00, 2e+04]
  Bounds range     [1e+00, 1e+00]
  RHS range        [1e+00, 1e+00]
Presolve removed 0 rows and 2 columns
Presolve time: 2.78s
Presolved: 401 rows, 287245 columns, 1886567 nonzeros
Variable types: 0 continuous, 287245 integer (287245 binary)

Starting sifting (using dual simplex for sub-problems)...

    Iter     Pivots    Primal Obj      Dual Obj        Time
       0          0     infinity      0.0000000e+00      4s
       1       2449   2.0200000e+08   2.0042488e+02      4s
       2       5653   2.0200000e+08   3.9510208e+02      4s
       3       9368   2.0200000e+08   5.8489771e+02      5s
       4      11987   2.0200000e+08   7.5751255e+02      5s
       5      14368   2.0200000e+08   9.3578936e+02      5s
       6      17052   2.0200000e+08   1.1137395e+03      5s
       7      22118   2.0200000e+08   1.2784538e+03      5s

Sifting complete


Root simplex log...

Iteration    Objective       Primal Inf.    Dual Inf.      Time
   29102    3.5502952e+05   3.875282e+01   2.197203e+10      6s
   83726    1.2237719e+05   0.000000e+00   0.000000e+00     10s

Root relaxation: objective 1.223772e+05, 83726 iterations, 5.60 seconds (6.67 work units)

    Nodes    |    Current Node    |     Objective Bounds      |     Work
 Expl Unexpl |  Obj  Depth IntInf | Incumbent    BestBd   Gap | It/Node Time

     0     0 122377.190    0  340          - 122377.190      -     -   12s
     0     0 122377.190    0  340          - 122377.190      -     -   13s
     0     0 122377.190    0  348          - 122377.190      -     -   13s
     0     0 122377.233    0  341          - 122377.233      -     -   14s
     0     0 122377.393    0  348          - 122377.393      -     -   14s
     0     0 122377.639    0  341          - 122377.639      -     -   14s
     0     0 122377.855    0  348          - 122377.855      -     -   14s
     0     0 122378.178    0  345          - 122378.178      -     -   15s
     0     0 122378.596    0  346          - 122378.596      -     -   15s
     0     0 122378.958    0  349          - 122378.958      -     -   15s
     0     0 122379.233    0  346          - 122379.233      -     -   15s
     0     0 122804.858    0  375          - 122804.858      -     -   48s
     0     0 122805.560    0  378          - 122805.560      -     -   49s
     0     0 122806.398    0  378          - 122806.398      -     -   49s
     0     0 122807.372    0  380          - 122807.372      -     -   50s
     0     0 122815.685    0  377          - 122815.685      -     -   51s
     0     0 122816.869    0  377          - 122816.869      -     -   52s
     0     0 122818.158    0  378          - 122818.158      -     -   52s
     0     0 122819.569    0  378          - 122819.569      -     -   53s
     0     0 122820.863    0  376          - 122820.863      -     -   54s
     0     0 122821.902    0  381          - 122821.902      -     -   55s
     0     0 122822.762    0  380          - 122822.762      -     -   55s
     0     0 123029.543    0  392          - 123029.543      -     -   82s
     0     0 123030.065    0  392          - 123030.065      -     -   82s
     0     0 123030.907    0  394          - 123030.907      -     -   83s
     0     0 123031.915    0  396          - 123031.915      -     -   83s
     0     0 123034.986    0  395          - 123034.986      -     -   84s
     0     0 123044.189    0  404          - 123044.189      -     -   87s
     0     0 123044.202    0  404          - 123044.202      -     -   87s
     0     0 123044.276    0  404          - 123044.276      -     -   87s
     0     0 123047.573    0  401          - 123047.573      -     -   90s
     0     0 123048.289    0  397          - 123048.289      -     -   91s
     0     0 123291.391    0  404          - 123291.391      -     -  118s
     0     0 123388.576    0  437          - 123388.576      -     -  134s
     0     0 123418.949    0  430          - 123418.949      -     -  140s
     0     0 123424.793    0  428          - 123424.793      -     -  145s
     0     0 123425.104    0  431          - 123425.104      -     -  146s
     0     0 123528.156    0  433          - 123528.156      -     -  167s
     0     0 123592.898    0  442          - 123592.898      -     -  195s
     0     0 123613.040    0  441          - 123613.040      -     -  205s
     0     0 123613.040    0  441          - 123613.040      -     -  205s
     0     0 123613.148    0  436          - 123613.148      -     -  205s
     0     0 123613.272    0  440          - 123613.272      -     -  206s
     0     0 123613.349    0  441          - 123613.349      -     -  206s
     0     0 123613.428    0  442          - 123613.428      -     -  207s
     0     0 123613.523    0  442          - 123613.523      -     -  207s
     0     0 123613.638    0  442          - 123613.638      -     -  207s
     0     0 123613.744    0  445          - 123613.744      -     -  208s
     0     0 123613.801    0  446          - 123613.801      -     -  208s
     0     0 123613.833    0  447          - 123613.833      -     -  208s
     0     0 123616.161    0  448          - 123616.161      -     -  212s
     0     0 123616.179    0  447          - 123616.179      -     -  212s
     0     0 123616.185    0  447          - 123616.185      -     -  212s
     0     0 123616.191    0  447          - 123616.191      -     -  213s
     0     0 123616.209    0  447          - 123616.209      -     -  213s
     0     0 123616.209    0  450          - 123616.209      -     -  213s
     0     0 123616.226    0  447          - 123616.226      -     -  213s
     0     0 123616.232    0  449          - 123616.232      -     -  213s
     0     0 123616.243    0  452          - 123616.243      -     -  213s
     0     0 123675.535    0  477          - 123675.535      -     -  230s
     0     0 123694.235    0  489          - 123694.235      -     -  242s
     0     0 123699.148    0  495          - 123699.148      -     -  250s
     0     0 123699.729    0  497          - 123699.729      -     -  252s
     0     0 123744.565    0  501          - 123744.565      -     -  273s
     0     0 123744.565    0  501          - 123744.565      -     -  273s
     0     0 123744.587    0  501          - 123744.587      -     -  273s
     0     0 123744.587    0  500          - 123744.587      -     -  274s
     0     0 123744.615    0  508          - 123744.615      -     -  274s
     0     0 123744.623    0  511          - 123744.623      -     -  274s
     0     0 123744.629    0  510          - 123744.629      -     -  275s
     0     0 123744.640    0  509          - 123744.640      -     -  275s
     0     0 123744.642    0  508          - 123744.642      -     -  275s
     0     0 123744.645    0  508          - 123744.645      -     -  276s
     0     0 123750.689    0  507          - 123750.689      -     -  283s
     0     0 123750.694    0  506          - 123750.694      -     -  283s
     0     0 123764.124    0  514          - 123764.124      -     -  294s
     0     0 123764.593    0  502          - 123764.593      -     -  315s
     0     0 123778.788    0  515          - 123778.788      -     -  328s
     0     0 123778.802    0  515          - 123778.802      -     -  328s
     0     0 123778.808    0  516          - 123778.808      -     -  328s
     0     0 123778.811    0  516          - 123778.811      -     -  328s
     0     0 123778.811    0  511          - 123778.811      -     -  329s
     0     0 123780.127    0  524          - 123780.127      -     -  333s
     0     0 123786.466    0  518          - 123786.466      -     -  340s
     0     0 123786.466    0  514          - 123786.466      -     -  343s
     0     2 123786.466    0  514          - 123786.466      -     -  627s
     1     4 123850.885    1  504          - 123786.466      -  4489  660s
     3     8 123853.933    2  495          - 123795.143      -  2179  688s
     7    12 123865.794    3  495          - 123814.555      -  1958  720s
    11    16 123897.675    3  493          - 123814.555      -  2189  786s
    15    20 124030.484    4  482          - 123823.886      -  2762  824s
    19    24 123882.820    4  475          - 123823.886      -  2624  850s
    23    28 123902.679    5  474          - 123838.094      -  2375  869s
    27    32 123923.627    5  468          - 123838.094      -  2179  905s
    31    36 123990.869    6  461          - 123846.214      -  2240  958s
    35    41 123917.888    6  466          - 123846.214      -  2270  991s
    40    46 123918.699    8  463          - 123852.672      -  2166 1024s
    45    52 123919.560   10  462          - 123852.672      -  2102 1055s
    51    59 123948.568   11  443          - 123852.672      -  2008 1086s
    58    64 123980.368   12  452          - 123852.672      -  1891 1123s
    63    69 124089.039   13  448          - 123852.672      -  1871 1152s
    68    74 124147.172   14  430          - 123852.672      -  1827 1181s
    73    80 124222.178   14  449          - 123852.672      -  1840 1224s
    79    87 124147.536   15  431          - 123852.672      -  1798 1261s
    86    93 124437.286   17  418          - 123852.672      -  1777 1303s
    92   100 124292.721   17  422          - 123852.672      -  1782 1331s
    99   109 124399.320   18  426          - 123852.672      -  1722 1375s
   108   116 124563.610   19  430          - 123852.672      -  1690 1429s
   115   126 124594.109   20  433          - 123852.672      -  1727 1475s
   125   135 124935.204   21  407          - 123852.672      -  1700 1521s
   134   143 125645.576   22  419          - 123852.672      -  1692 1570s
   142   152 125629.247   23  435          - 123852.672      -  1690 1617s
   151   161 125632.101   24  422          - 123852.672      -  1694 1669s
   160   170 125386.801   25  429          - 123852.672      -  1691 1721s
   170   178 126403.973   26  413          - 123852.672      -  1693 1777s
   178   190 126523.481   27  424          - 123852.672      -  1708 1830s
   190   204 126638.781   30  393          - 123852.672      -  1683 1879s
   206   220 126770.218   33  365          - 123852.672      -  1621 1928s
   232   239 127741.882   43  351          - 123852.672      -  1498 1975s
   256   266 126904.813   51  355          - 123852.672      -  1406 2024s
   283   297 126928.926   64  341          - 123852.672      -  1319 2071s
   314   325 126938.741   77  342          - 123852.672      -  1227 2125s
   342   354 126953.015   86  335          - 123852.672      -  1173 2183s
   372   383 126976.224   97  311          - 123852.672      -  1128 2234s
   402   424 127007.796  110  308          - 123852.672      -  1086 2290s
   443   467 127041.924  127  319          - 123852.672      -  1022 2344s
   486   516 127077.972  142  321          - 123852.672      -   965 2397s
   535   565 127194.566  156  320          - 123852.672      -   905 2448s
   592   608 127280.085  172  311          - 123852.672      -   840 2502s
   637   656 127430.738  185  319          - 123852.672      -   808 2558s
   686   728 127631.800  196  327          - 123852.672      -   774 2618s
   759   804 127770.621  204  312          - 123852.672      -   714 2680s
   836   828 128044.947  216  322          - 123852.672      -   666 2700s

Cutting planes:
  Clique: 186
  Zero half: 9
  RLT: 7

Explored 860 nodes (681517 simplex iterations) in 2700.25 seconds (3687.70 work units)
Thread count was 8 (of 8 available processors)

Solution count 0

Time limit reached
Best objective -, best bound 1.238530000000e+05, gap -

User-callback calls 202688, time in user-callback 0.90 sec

=========================

OUTPUT STATISTICS
Relaxed: false
Time since start: 3298.0065529346466
SetUpTime: 590.3240540027618
Objective value: 0
Solving time: 2707.475790977478
